results_rootrelaxation/bin018_050_008.srr.sol
solution status: optimal solution found
objective value:                                    0
_var826_                           0.0215284296323966 	(obj:0)
_var2689_                           0.221766161806624 	(obj:0)
_var2691_                           0.382139088172664 	(obj:0)
_var2692_                           0.211028494927487 	(obj:0)
_var2700_                           0.115068205095968 	(obj:0)
_var2705_                           0.106032431323429 	(obj:0)
_var2708_                           0.219104315800337 	(obj:0)
_var2710_                           0.135016781596466 	(obj:0)
_var2711_                          0.0628271185716449 	(obj:0)
_var2712_                           0.165876968306495 	(obj:0)
_var2713_                           0.136002343378191 	(obj:0)
_var2714_                           0.244754387609589 	(obj:0)
_var2716_                           0.209929045833545 	(obj:0)
_var2718_                           0.185446756703106 	(obj:0)
_var2720_                           0.156356968947091 	(obj:0)
_var2722_                          0.0650361385930527 	(obj:0)
_var2727_                           0.385255336513632 	(obj:0)
_var2729_                         0.00607861838241852 	(obj:0)
_var2731_                           0.236909308007163 	(obj:0)
_var2742_                           0.117621083750318 	(obj:0)
_var2744_                          0.0921886228298125 	(obj:0)
_var2745_                           0.106071699574185 	(obj:0)
_var2747_                            0.19317943054282 	(obj:0)
_var2750_                          0.0326213601547606 	(obj:0)
_var2751_                           0.152729615099645 	(obj:0)
_var2752_                           0.100088922504302 	(obj:0)
_var2753_                            0.10131988213744 	(obj:0)
_var2754_                          0.0392613194540389 	(obj:0)
_var2756_                           0.178478724540303 	(obj:0)
_var2774_                           0.126266322675394 	(obj:0)
_var2775_                           0.270251963573017 	(obj:0)
_var2779_                            0.21653264495593 	(obj:0)
_var2780_                           0.171136694960043 	(obj:0)
_var2782_                           0.112772135926269 	(obj:0)
_var2783_                           0.363618737415548 	(obj:0)
_var2784_                           0.094428242003833 	(obj:0)
_var2787_                          0.0828779872436246 	(obj:0)
_var2792_                          0.0418622128507971 	(obj:0)
_var2795_                           0.204297269599115 	(obj:0)
_var2797_                           0.118911774121188 	(obj:0)
_var2799_                           0.107296994260635 	(obj:0)
_var2802_                         0.00248432838429639 	(obj:0)
_var2805_                            0.15912662672724 	(obj:0)
_var2806_                           0.267087997299022 	(obj:0)
_var2808_                          0.0845755721794989 	(obj:0)
_var2809_                           0.220539782423233 	(obj:0)
_var2811_                           0.113005273841358 	(obj:0)
_var2812_                          0.0626819432822872 	(obj:0)
_var2813_                          0.0699876132234915 	(obj:0)
_var2814_                           0.133839198870696 	(obj:0)
_var2815_                           0.342268618911188 	(obj:0)
_var2816_                          0.0140267719773547 	(obj:0)
_var2817_                          0.0223343397010258 	(obj:0)
_var2818_                          0.0392456872301119 	(obj:0)
_var2819_                           0.104400215505171 	(obj:0)
_var2822_                           0.176810400414031 	(obj:0)
_var2824_                          0.0594404012283292 	(obj:0)
_var2825_                           0.219889840113713 	(obj:0)
_var2828_                          0.0882690039061506 	(obj:0)
_var2830_                           0.118088302944022 	(obj:0)
_var2832_                            0.07256177883983 	(obj:0)
_var2833_                          0.0570868614939595 	(obj:0)
_var2835_                           0.168366804068389 	(obj:0)
_var2838_                           0.492496480398633 	(obj:0)
_var2840_                          0.0149581414808372 	(obj:0)
_var2841_                           0.213626292430527 	(obj:0)
_var2842_                          0.0154336729495711 	(obj:0)
_var2843_                           0.145688169227536 	(obj:0)
_var2844_                            0.13223632324368 	(obj:0)
_var2845_                           0.290181610580432 	(obj:0)
_var2847_                          0.0561281359914406 	(obj:0)
_var2848_                         0.00751425381476567 	(obj:0)
_var2849_                          0.0516800609673362 	(obj:0)
_var2851_                           0.263226064172874 	(obj:0)
_var2852_                           0.113721878040241 	(obj:0)
_var2855_                           0.182138567129485 	(obj:0)
_var2857_                           0.262052061877933 	(obj:0)
_var2858_                           0.139918195768776 	(obj:0)
_var2859_                          0.0894964128181256 	(obj:0)
_var2860_                          0.0589566930845473 	(obj:0)
_var2861_                          0.0147197316925865 	(obj:0)
_var2863_                         0.000214323538483774 	(obj:0)
_var2864_                           0.234181945378279 	(obj:0)
_var2866_                          0.0201204462445046 	(obj:0)
_var2867_                         0.00738756516274476 	(obj:0)
_var2868_                          0.0102827551767596 	(obj:0)
_var2869_                           0.133888938691896 	(obj:0)
_var2871_                           0.247007118647984 	(obj:0)
_var2874_                           0.124658891630556 	(obj:0)
_var2878_                          0.0315087515112951 	(obj:0)
_var2879_                          0.0607046868494789 	(obj:0)
_var2880_                         0.00634954796503728 	(obj:0)
_var2882_                          0.0687987635260164 	(obj:0)
_var2883_                          0.0826020639582686 	(obj:0)
_var2885_                           0.176178983905538 	(obj:0)
_var2887_                           0.141112751132756 	(obj:0)
_var2888_                           0.151917314042554 	(obj:0)
_var2889_                          0.0627492652090685 	(obj:0)
_var2890_                         0.00203508007487308 	(obj:0)
_var2891_                           0.214721569269918 	(obj:0)
_var2892_                         0.00493395371165417 	(obj:0)
_var2893_                          0.0550134747675859 	(obj:0)
_var2897_                          0.0297775909422555 	(obj:0)
_var2898_                          0.0166815926796183 	(obj:0)
_var2900_                         0.00134011767016019 	(obj:0)
_var2901_                          0.0491756398608365 	(obj:0)
_var2904_                           0.317152728860995 	(obj:0)
_var2905_                           0.118255283945452 	(obj:0)
_var2906_                          0.0293891242036639 	(obj:0)
_var2907_                           0.101509745581112 	(obj:0)
_var2908_                          0.0451588442324938 	(obj:0)
_var2909_                          0.0832634170477156 	(obj:0)
_var2910_                          0.0843260230324967 	(obj:0)
_var2911_                           0.167662544993166 	(obj:0)
_var2913_                          0.0808011739986101 	(obj:0)
_var2914_                          0.0703193194240596 	(obj:0)
_var2917_                          0.0202973780638283 	(obj:0)
_var2919_                           0.164359119628255 	(obj:0)
_var2920_                           0.131796737350275 	(obj:0)
_var2921_                           0.147179836424672 	(obj:0)
_var2922_                          0.0489872868869612 	(obj:0)
_var2925_                            0.04893735023593 	(obj:0)
_var2926_                           0.149270445356214 	(obj:0)
_var2927_                          0.0570259860486282 	(obj:0)
_var2929_                          0.0432492033347543 	(obj:0)
_var2930_                          0.0519172070934391 	(obj:0)
_var2932_                           0.119500946681391 	(obj:0)
_var2933_                          0.0789244952501637 	(obj:0)
_var2934_                          0.0324259540321946 	(obj:0)
_var2935_                           0.127171444120187 	(obj:0)
_var2938_                          0.0129869628123902 	(obj:0)
_var2939_                          0.0520381678519855 	(obj:0)
_var2941_                           0.120081225790202 	(obj:0)
_var2944_                          0.0462065336083633 	(obj:0)
_var2945_                          0.0472760928991337 	(obj:0)
_var2947_                         0.00878819254173975 	(obj:0)
_var2950_                           0.185387227919744 	(obj:0)
_var2952_                          0.0434188915812616 	(obj:0)
_var2954_                          0.0117708794524312 	(obj:0)
_var2955_                         0.00688535668410574 	(obj:0)
_var2956_                          0.0962591494176558 	(obj:0)
_var2957_                          0.0490286936780917 	(obj:0)
_var2958_                           0.181810039970153 	(obj:0)
_var2959_                          0.0224251439733109 	(obj:0)
_var2962_                          0.0477625409485702 	(obj:0)
_var2963_                          0.0594215024943646 	(obj:0)
_var2964_                          0.0953043562613046 	(obj:0)
_var2965_                          0.0138992643088491 	(obj:0)
_var2967_                          0.0635320048484683 	(obj:0)
_var2968_                          0.0259933777592812 	(obj:0)
_var2971_                          0.0642304271745142 	(obj:0)
_var2975_                          0.0630085930412585 	(obj:0)
