results_rootrelaxation/bin018_050_008.srr.log
SCIP version 8.0.3.5 [precision: 8 byte] [memory: block] [mode: optimized] [LP solver: Soplex 6.0.1.3] [GitHash: 438792519e]
Copyright (c) 2002-2023 Zuse Institute Berlin (ZIB)

External libraries: 
  Readline 8.1         GNU library for command line editing (gnu.org/s/readline)
  Soplex 6.0.1.3       Linear Programming Solver developed at Zuse Institute Berlin (soplex.zib.de) [GitHash: 713be0fe]
  CppAD 20180000.0     Algorithmic Differentiation of C++ algorithms developed by B. Bell (github.com/coin-or/CppAD)
  ZLIB 1.2.11          General purpose compression library by J. Gailly and M. Adler (zlib.net)
  bliss 0.77           Computing Graph Automorphism Groups by T. Junttila and P. Kaski (www.tcs.hut.fi/Software/bliss/)

user parameter file <scip.set> not found - using default parameters

srr/relaxation = TRUE

read problem <instances/bin018_050_008.srr>
============

Original problem: 
original problem has 0 variables (0 bin, 0 int, 0 impl, 0 cont) and 170 constraints

presolving:
presolving (1 rounds: 1 fast, 1 medium, 1 exhaustive):
 0 deleted vars, 0 deleted constraints, 0 added constraints, 0 tightened bounds, 0 added holes, 0 changed sides, 0 changed coefficients
 0 implications, 0 cliques
presolved problem has 0 variables (0 bin, 0 int, 0 impl, 0 cont) and 170 constraints
    170 constraints of type <linear>
Presolving Time: 0.00

 time | node  | left  |LP iter|LP it/n|mem/heur|mdpt |vars |cons |rows |cuts |sepa|confs|strbr|  dualbound   | primalbound  |  gap   | compl. 
  0.0s|     1 |     0 |     1 |     - |   922k |   0 |   1 | 170 | 170 |   0 |  0 |   0 |   0 |      --      |      --      |    Inf | unknown
  0.2s|     1 |     0 |  1534 |     - |  7208k |   0 |1618 | 170 | 170 |   0 |  0 |   0 |   0 |      --      |      --      |    Inf | unknown
r 0.9s|     1 |     0 |  6698 |     - |simplero|   0 |2672 | 170 | 170 |   0 |  0 |   0 |   0 |      --      | 3.227315e+01 |    Inf | unknown
r 0.9s|     1 |     0 |  6758 |     - |simplero|   0 |2689 | 170 | 170 |   0 |  0 |   0 |   0 |      --      | 3.144698e+01 |    Inf | unknown
r 0.9s|     1 |     0 |  6897 |     - |simplero|   0 |2706 | 170 | 170 |   0 |  0 |   0 |   0 |      --      | 2.924190e+01 |    Inf | unknown
r 0.9s|     1 |     0 |  7014 |     - |simplero|   0 |2723 | 170 | 170 |   0 |  0 |   0 |   0 |      --      | 2.708364e+01 |    Inf | unknown
r 0.9s|     1 |     0 |  7032 |     - |simplero|   0 |2723 | 170 | 170 |   0 |  0 |   0 |   0 |      --      | 2.703222e+01 |    Inf | unknown
r 0.9s|     1 |     0 |  7047 |     - |simplero|   0 |2723 | 170 | 170 |   0 |  0 |   0 |   0 |      --      | 2.702469e+01 |    Inf | unknown
r 0.9s|     1 |     0 |  7193 |     - |simplero|   0 |2740 | 170 | 170 |   0 |  0 |   0 |   0 |      --      | 2.472334e+01 |    Inf | unknown
r 0.9s|     1 |     0 |  7248 |     - |simplero|   0 |2740 | 170 | 170 |   0 |  0 |   0 |   0 |      --      | 2.440771e+01 |    Inf | unknown
r 1.0s|     1 |     0 |  7264 |     - |simplero|   0 |2740 | 170 | 170 |   0 |  0 |   0 |   0 |      --      | 2.436190e+01 |    Inf | unknown
r 1.0s|     1 |     0 |  7362 |     - |simplero|   0 |2757 | 170 | 170 |   0 |  0 |   0 |   0 |      --      | 2.210363e+01 |    Inf | unknown
r 1.0s|     1 |     0 |  7436 |     - |simplero|   0 |2757 | 170 | 170 |   0 |  0 |   0 |   0 |      --      | 2.152816e+01 |    Inf | unknown
r 1.0s|     1 |     0 |  7450 |     - |simplero|   0 |2757 | 170 | 170 |   0 |  0 |   0 |   0 |      --      | 2.149874e+01 |    Inf | unknown
r 1.0s|     1 |     0 |  7456 |     - |simplero|   0 |2757 | 170 | 170 |   0 |  0 |   0 |   0 |      --      | 2.149655e+01 |    Inf | unknown
 time | node  | left  |LP iter|LP it/n|mem/heur|mdpt |vars |cons |rows |cuts |sepa|confs|strbr|  dualbound   | primalbound  |  gap   | compl. 
r 1.0s|     1 |     0 |  7584 |     - |simplero|   0 |2774 | 170 | 170 |   0 |  0 |   0 |   0 |      --      | 1.923022e+01 |    Inf | unknown
r 1.0s|     1 |     0 |  7631 |     - |simplero|   0 |2774 | 170 | 170 |   0 |  0 |   0 |   0 |      --      | 1.903775e+01 |    Inf | unknown
r 1.0s|     1 |     0 |  7653 |     - |simplero|   0 |2774 | 170 | 170 |   0 |  0 |   0 |   0 |      --      | 1.902992e+01 |    Inf | unknown
r 1.0s|     1 |     0 |  7770 |     - |simplero|   0 |2791 | 170 | 170 |   0 |  0 |   0 |   0 |      --      | 1.723762e+01 |    Inf | unknown
r 1.1s|     1 |     0 |  7874 |     - |simplero|   0 |2791 | 170 | 170 |   0 |  0 |   0 |   0 |      --      | 1.645853e+01 |    Inf | unknown
r 1.1s|     1 |     0 |  7901 |     - |simplero|   0 |2791 | 170 | 170 |   0 |  0 |   0 |   0 |      --      | 1.642086e+01 |    Inf | unknown
r 1.1s|     1 |     0 |  7903 |     - |simplero|   0 |2791 | 170 | 170 |   0 |  0 |   0 |   0 |      --      | 1.642069e+01 |    Inf | unknown
r 1.1s|     1 |     0 |  8044 |     - |simplero|   0 |2808 | 170 | 170 |   0 |  0 |   0 |   0 |      --      | 1.476108e+01 |    Inf | unknown
r 1.1s|     1 |     0 |  8087 |     - |simplero|   0 |2808 | 170 | 170 |   0 |  0 |   0 |   0 |      --      | 1.465636e+01 |    Inf | unknown
r 1.1s|     1 |     0 |  8092 |     - |simplero|   0 |2808 | 170 | 170 |   0 |  0 |   0 |   0 |      --      | 1.465263e+01 |    Inf | unknown
r 1.1s|     1 |     0 |  8250 |     - |simplero|   0 |2825 | 170 | 170 |   0 |  0 |   0 |   0 |      --      | 1.243562e+01 |    Inf | unknown
r 1.1s|     1 |     0 |  8320 |     - |simplero|   0 |2825 | 170 | 170 |   0 |  0 |   0 |   0 |      --      | 1.222090e+01 |    Inf | unknown
r 1.1s|     1 |     0 |  8345 |     - |simplero|   0 |2825 | 170 | 170 |   0 |  0 |   0 |   0 |      --      | 1.216797e+01 |    Inf | unknown
r 1.1s|     1 |     0 |  8352 |     - |simplero|   0 |2825 | 170 | 170 |   0 |  0 |   0 |   0 |      --      | 1.216660e+01 |    Inf | unknown
r 1.1s|     1 |     0 |  8481 |     - |simplero|   0 |2842 | 170 | 170 |   0 |  0 |   0 |   0 |      --      | 1.069642e+01 |    Inf | unknown
 time | node  | left  |LP iter|LP it/n|mem/heur|mdpt |vars |cons |rows |cuts |sepa|confs|strbr|  dualbound   | primalbound  |  gap   | compl. 
r 1.2s|     1 |     0 |  8609 |     - |simplero|   0 |2842 | 170 | 170 |   0 |  0 |   0 |   0 |      --      | 9.539113e+00 |    Inf | unknown
r 1.2s|     1 |     0 |  8645 |     - |simplero|   0 |2842 | 170 | 170 |   0 |  0 |   0 |   0 |      --      | 9.436905e+00 |    Inf | unknown
r 1.2s|     1 |     0 |  8647 |     - |simplero|   0 |2842 | 170 | 170 |   0 |  0 |   0 |   0 |      --      | 9.436737e+00 |    Inf | unknown
r 1.2s|     1 |     0 |  8791 |     - |simplero|   0 |2859 | 170 | 170 |   0 |  0 |   0 |   0 |      --      | 7.330913e+00 |    Inf | unknown
r 1.2s|     1 |     0 |  8846 |     - |simplero|   0 |2859 | 170 | 170 |   0 |  0 |   0 |   0 |      --      | 7.027163e+00 |    Inf | unknown
r 1.2s|     1 |     0 |  8861 |     - |simplero|   0 |2859 | 170 | 170 |   0 |  0 |   0 |   0 |      --      | 6.967572e+00 |    Inf | unknown
r 1.2s|     1 |     0 |  8875 |     - |simplero|   0 |2859 | 170 | 170 |   0 |  0 |   0 |   0 |      --      | 6.941663e+00 |    Inf | unknown
r 1.2s|     1 |     0 |  8964 |     - |simplero|   0 |2876 | 170 | 170 |   0 |  0 |   0 |   0 |      --      | 5.680862e+00 |    Inf | unknown
  1.2s|     1 |     0 |  8997 |     - |    14M |   0 |2876 | 170 | 170 |   0 |  0 |   0 |   0 |      --      | 5.680862e+00 |    Inf | unknown
r 1.2s|     1 |     0 |  8997 |     - |simplero|   0 |2876 | 170 | 170 |   0 |  0 |   0 |   0 |      --      | 5.543580e+00 |    Inf | unknown
r 1.2s|     1 |     0 |  9008 |     - |simplero|   0 |2876 | 170 | 170 |   0 |  0 |   0 |   0 |      --      | 5.532818e+00 |    Inf | unknown
r 1.3s|     1 |     0 |  9121 |     - |simplero|   0 |2893 | 170 | 170 |   0 |  0 |   0 |   0 |      --      | 4.237932e+00 |    Inf | unknown
r 1.3s|     1 |     0 |  9149 |     - |simplero|   0 |2893 | 170 | 170 |   0 |  0 |   0 |   0 |      --      | 4.184916e+00 |    Inf | unknown
r 1.3s|     1 |     0 |  9154 |     - |simplero|   0 |2893 | 170 | 170 |   0 |  0 |   0 |   0 |      --      | 4.182662e+00 |    Inf | unknown
r 1.3s|     1 |     0 |  9156 |     - |simplero|   0 |2893 | 170 | 170 |   0 |  0 |   0 |   0 |      --      | 4.182659e+00 |    Inf | unknown
 time | node  | left  |LP iter|LP it/n|mem/heur|mdpt |vars |cons |rows |cuts |sepa|confs|strbr|  dualbound   | primalbound  |  gap   | compl. 
r 1.3s|     1 |     0 |  9267 |     - |simplero|   0 |2910 | 170 | 170 |   0 |  0 |   0 |   0 |      --      | 3.176755e+00 |    Inf | unknown
r 1.3s|     1 |     0 |  9310 |     - |simplero|   0 |2910 | 170 | 170 |   0 |  0 |   0 |   0 |      --      | 3.082572e+00 |    Inf | unknown
r 1.3s|     1 |     0 |  9316 |     - |simplero|   0 |2910 | 170 | 170 |   0 |  0 |   0 |   0 |      --      | 3.081015e+00 |    Inf | unknown
r 1.3s|     1 |     0 |  9425 |     - |simplero|   0 |2927 | 170 | 170 |   0 |  0 |   0 |   0 |      --      | 2.294069e+00 |    Inf | unknown
r 1.3s|     1 |     0 |  9476 |     - |simplero|   0 |2927 | 170 | 170 |   0 |  0 |   0 |   0 |      --      | 2.054747e+00 |    Inf | unknown
r 1.3s|     1 |     0 |  9504 |     - |simplero|   0 |2927 | 170 | 170 |   0 |  0 |   0 |   0 |      --      | 2.009671e+00 |    Inf | unknown
r 1.3s|     1 |     0 |  9607 |     - |simplero|   0 |2944 | 170 | 170 |   0 |  0 |   0 |   0 |      --      | 1.575309e+00 |    Inf | unknown
r 1.3s|     1 |     0 |  9618 |     - |simplero|   0 |2944 | 170 | 170 |   0 |  0 |   0 |   0 |      --      | 1.555833e+00 |    Inf | unknown
r 1.4s|     1 |     0 |  9628 |     - |simplero|   0 |2944 | 170 | 170 |   0 |  0 |   0 |   0 |      --      | 1.553956e+00 |    Inf | unknown
r 1.4s|     1 |     0 |  9708 |     - |simplero|   0 |2961 | 170 | 170 |   0 |  0 |   0 |   0 |      --      | 9.582506e-01 |    Inf | unknown
r 1.4s|     1 |     0 |  9764 |     - |simplero|   0 |2961 | 170 | 170 |   0 |  0 |   0 |   0 |      --      | 6.169127e-01 |    Inf | unknown
r 1.4s|     1 |     0 |  9786 |     - |simplero|   0 |2961 | 170 | 170 |   0 |  0 |   0 |   0 |      --      | 5.529446e-01 |    Inf | unknown
r 1.4s|     1 |     0 |  9797 |     - |simplero|   0 |2961 | 170 | 170 |   0 |  0 |   0 |   0 |      --      | 5.419746e-01 |    Inf | unknown
r 1.4s|     1 |     0 |  9798 |     - |simplero|   0 |2961 | 170 | 170 |   0 |  0 |   0 |   0 |      --      | 5.419502e-01 |    Inf | unknown
r 1.4s|     1 |     0 |  9902 |     - |simplero|   0 |2978 | 170 | 170 |   0 |  0 |   0 |   0 |      --      | 7.407873e-03 |    Inf | unknown
 time | node  | left  |LP iter|LP it/n|mem/heur|mdpt |vars |cons |rows |cuts |sepa|confs|strbr|  dualbound   | primalbound  |  gap   | compl. 
r 1.4s|     1 |     0 |  9911 |     - |simplero|   0 |2978 | 170 | 170 |   0 |  0 |   0 |   0 |      --      | 0.000000e+00 |    Inf | unknown
  1.4s|     1 |     0 |  9911 |     - |    15M |   0 |2978 | 170 | 170 |   0 |  0 |   0 |   0 | 0.000000e+00 | 0.000000e+00 |   0.00%| unknown
  1.4s|     1 |     0 |  9911 |     - |    15M |   0 |2978 | 170 | 170 |   0 |  0 |   0 |   0 | 0.000000e+00 | 0.000000e+00 |   0.00%| unknown

SCIP Status        : problem is solved [optimal solution found]
Solving Time (sec) : 1.42
Solving Nodes      : 1
Primal Bound       : +0.00000000000000e+00 (58 solutions)
Dual Bound         : +0.00000000000000e+00
Gap                : 0.00 %

written transformed problem to file <results_rootrelaxation/bin018_050_008.srr.lp>
written transformed problem to file <results_rootrelaxation/bin018_050_008.srr.cip>

written solution information to file <results_rootrelaxation/bin018_050_008.srr.sol>



